200 1386
1089 195 1209 1254 1100 775 859 471 56 842 288 484 1155 1001 1182 1307 593 234 510 838 860 530 1058 279 1380 123 1350 1305 1143 1031 377 694 1162 1183 1279 641 828 299 267 132 675 456 1100 1114 1331 401 1235 118 825 287 1263 1294 602 263 1323 956 865 806 1125 1316 774 1059 1376 1308 1065 596 1274 894 470 14 225 742 850 840 1055 1133 1306 790 26 580 882 1354 913 1167 1040 1150 1302 245 18 568 1131 381 442 374 499 592 695 674 665 996 762 1233 1323 422 675 100 472 831 1303 276 772 1223 332 343 1079 1081 1253 805 473 60 36 991 159 912 136 446 426 1291 376 438 999 1076 28 1273 961 1173 715 878 776 964 1253 988 1342 880 730 385 968 576 1012 656 1247 1006 960 1126 481 1313 555 13 1283 576 155 650 729 704 777 664 403 657 591 970 430 411 1132 567 146 518 868 1014 777 494 787 426 806 433 771 905 1124 738 1201 1373 610 18 1100 355 474 271 917 1045 706 358 